nNurses = 120;
hours = 45;
demand = [18 10 13 20 14 9 6 13 15 19 5 13 9 10 17 6 0 11 11 20 18 14 2 27 9 12 10 19 28 5 6 4 27 7 1 3 10 22 2 19 26 9 22 15 19];
minHours = 2;
maxHours = 21;
maxConsec = 3;
maxPresence = 24;